# Solution for model SU-StripPacking-10
# Objective value = 143
c[0,0] 88
c[0,1] 62
c[1,0] 104
c[1,1] 60
c[2,0] 14.5
c[2,1] 47.5
c[3,0] 135
c[3,1] 63
c[4,0] 42.5
c[4,1] 21
c[5,0] 23
c[5,1] 63.5
c[6,0] 55
c[6,1] 48.5
c[7,0] 106
c[7,1] 16
c[8,0] 40
c[8,1] 107.5
c[9,0] 133
c[9,1] 117
h 143
delta[0,1,0] 1
delta[0,1,1] 0
delta[0,2,0] 0
delta[0,2,1] 0
delta[0,3,0] 1
delta[0,3,1] 0
delta[0,4,0] 0
delta[0,4,1] 0
delta[0,5,0] 0
delta[0,5,1] 0
delta[0,6,0] 0
delta[0,6,1] 0
delta[0,7,0] 0
delta[0,7,1] 0
delta[0,8,0] 0
delta[0,8,1] 1
delta[0,9,0] 1
delta[0,9,1] 0
delta[1,0,0] 0
delta[1,0,1] 0
delta[1,2,0] 0
delta[1,2,1] 0
delta[1,3,0] 1
delta[1,3,1] 0
delta[1,4,0] 0
delta[1,4,1] 0
delta[1,5,0] 0
delta[1,5,1] 0
delta[1,6,0] 0
delta[1,6,1] 0
delta[1,7,0] 0
delta[1,7,1] 0
delta[1,8,0] 0
delta[1,8,1] 1
delta[1,9,0] 0
delta[1,9,1] 1
delta[2,0,0] 1
delta[2,0,1] 0
delta[2,1,0] 1
delta[2,1,1] 0
delta[2,3,0] 1
delta[2,3,1] 0
delta[2,4,0] 0
delta[2,4,1] 0
delta[2,5,0] 0
delta[2,5,1] 1
delta[2,6,0] 1
delta[2,6,1] 0
delta[2,7,0] 1
delta[2,7,1] 0
delta[2,8,0] 0
delta[2,8,1] 1
delta[2,9,0] 1
delta[2,9,1] 0
delta[3,0,0] 0
delta[3,0,1] 0
delta[3,1,0] 0
delta[3,1,1] 0
delta[3,2,0] 0
delta[3,2,1] 0
delta[3,4,0] 0
delta[3,4,1] 0
delta[3,5,0] 0
delta[3,5,1] 0
delta[3,6,0] 0
delta[3,6,1] 0
delta[3,7,0] 0
delta[3,7,1] 0
delta[3,8,0] 0
delta[3,8,1] 0
delta[3,9,0] 0
delta[3,9,1] 1
delta[4,0,0] 1
delta[4,0,1] 0
delta[4,1,0] 0
delta[4,1,1] 1
delta[4,2,0] 0
delta[4,2,1] 1
delta[4,3,0] 1
delta[4,3,1] 0
delta[4,5,0] 0
delta[4,5,1] 1
delta[4,6,0] 0
delta[4,6,1] 1
delta[4,7,0] 1
delta[4,7,1] 0
delta[4,8,0] 0
delta[4,8,1] 1
delta[4,9,0] 1
delta[4,9,1] 0
delta[5,0,0] 1
delta[5,0,1] 0
delta[5,1,0] 1
delta[5,1,1] 0
delta[5,2,0] 0
delta[5,2,1] 0
delta[5,3,0] 1
delta[5,3,1] 0
delta[5,4,0] 0
delta[5,4,1] 0
delta[5,6,0] 0
delta[5,6,1] 0
delta[5,7,0] 1
delta[5,7,1] 0
delta[5,8,0] 0
delta[5,8,1] 1
delta[5,9,0] 1
delta[5,9,1] 0
delta[6,0,0] 1
delta[6,0,1] 0
delta[6,1,0] 1
delta[6,1,1] 0
delta[6,2,0] 0
delta[6,2,1] 0
delta[6,3,0] 1
delta[6,3,1] 0
delta[6,4,0] 0
delta[6,4,1] 0
delta[6,5,0] 0
delta[6,5,1] 1
delta[6,7,0] 1
delta[6,7,1] 0
delta[6,8,0] 0
delta[6,8,1] 1
delta[6,9,0] 1
delta[6,9,1] 0
delta[7,0,0] 0
delta[7,0,1] 1
delta[7,1,0] 0
delta[7,1,1] 1
delta[7,2,0] 0
delta[7,2,1] 0
delta[7,3,0] 0
delta[7,3,1] 1
delta[7,4,0] 0
delta[7,4,1] 0
delta[7,5,0] 0
delta[7,5,1] 0
delta[7,6,0] 0
delta[7,6,1] 0
delta[7,8,0] 0
delta[7,8,1] 1
delta[7,9,0] 0
delta[7,9,1] 1
delta[8,0,0] 0
delta[8,0,1] 0
delta[8,1,0] 0
delta[8,1,1] 0
delta[8,2,0] 0
delta[8,2,1] 0
delta[8,3,0] 1
delta[8,3,1] 0
delta[8,4,0] 0
delta[8,4,1] 0
delta[8,5,0] 0
delta[8,5,1] 0
delta[8,6,0] 0
delta[8,6,1] 0
delta[8,7,0] 0
delta[8,7,1] 0
delta[8,9,0] 1
delta[8,9,1] 0
delta[9,0,0] 0
delta[9,0,1] 0
delta[9,1,0] 0
delta[9,1,1] 0
delta[9,2,0] 0
delta[9,2,1] 0
delta[9,3,0] 0
delta[9,3,1] 0
delta[9,4,0] 0
delta[9,4,1] 0
delta[9,5,0] 0
delta[9,5,1] 0
delta[9,6,0] 0
delta[9,6,1] 0
delta[9,7,0] 0
delta[9,7,1] 0
delta[9,8,0] 0
delta[9,8,1] 0
